language Essence 1.3

letting bot_end be
        [1954, 294, 17793, 5668, 19250, 19193, 20703, 13769, 3044, 4911, 16235, 19903, 3921, 19178, 22642, 11666, 5400,
         13803, 1317, 18459, 7077, 23468, 10191, 19781, 8904, 5260, 22364, 10103, 11082, 15219, 15995, 10041, 20539,
         22532, 18070, 20982, 645, 11522, 9344, 5247, 8328, 21457;
             int(1..42)]
letting bot_start be
        [15461, 9456, 13347, 19026, 5146, 22876, 21089, 8018, 6538, 13222, 15803, 716, 21402, 15970, 13681, 13274,
         18124, 11679, 8311, 799, 16659, 9536, 7702, 14241, 15816, 12026, 5298, 6280, 17542, 17515, 2425, 15306, 9368,
         23422, 7613, 17876, 16684, 14006, 10421, 23570, 16584, 10126;
             int(1..42)]
letting buffer_col be 2
letting buffer_row be 2
letting corridor_size be 6
letting n_shelves_col be 30
letting n_shelves_row be 14
letting shelf_col_size be 2
letting shelf_row_size be 1
